 199 20 237 198 124 111 114 78 130 130 209 203 164 96 207 136 89 240 224 140 159 150 53 77 120 59 216 49 57 43 58 111 79 236 110 47 231 250 112 28 66 104 152 67 154 182 56 30 75 81 108 130 21 67 205 7 237 186 125 148 60 117 246 139 133 59 125 159 173 101 94 252 9 226 233 203 25 67 85 174 34 184 27 167 126 199 183 231 228 85 178 50 7 190 128 122 231 156 158 220 206 147 46 61 226 7 125 42 250 182 128 120 15 174 10 18 133 24 209 209 184 38 168 132 249 166 204 116 110 211 21 34 44 100 212 205 15 102 134 106 168 160 74 110 3 251 42 27 95 50 125 86 243 235 13 188 68 108 140 241 106 251 77 179 170 138 178 170 45 32 255 43 8 143 225 171 48 94 117 251 40 219 165 96 48 109 123 30 0 0 0 0 0 0 0 0 0 0 0 0 0 0 0 0 0 0 0 0 0 0 0 0 0 0 0 0 0 0 0 0 0 0 0 0 0 0 0 0 0 0 0 0 0 0 0 0 0 0 0